17422 5725
553 21848
24656 60818
20056 37883
9937 61740
29550 49615
28701 18864
35141 19969
23815 43339
53619 40717
62769 50893
52264 53466
378 50604
29603 9060
17931 30369
7478 3533
23945 58918
36029 26270
63219 12320
36422 63298
64666 49677
32969 26523
21015 3242
42301 40833
52207 26632
50042 63992
30584 26704
29308 46688
32887 4437
38491 6529
50900 14468
52027 14771
